831.80 0
0 27 69 1 51 9 81 33 50 0
0 6 99 61 16 86 38 44 14 43 42 87 13 0
0 18 83 8 82 7 48 47 19 11 62 88 52 0
0 89 60 5 84 17 45 46 36 49 64 63 90 32 10 31 0
0 70 30 20 66 65 71 35 34 78 79 3 77 76 28 0
0 53 40 21 73 72 74 75 56 23 22 41 15 57 2 58 0
0 94 95 97 92 98 37 100 91 85 93 59 96 0
0 26 4 39 67 25 55 54 24 29 68 80 12 0
